unsat
(define-fun move ((currPoint Int) (o0 Int) (o1 Int)) Int (ite (= 0 (get-x currPoint)) 2 1))
0.42user 0.00system 0:00.43elapsed 99%CPU (0avgtext+0avgdata 35560maxresident)k
0inputs+0outputs (0major+3518minor)pagefaults 0swaps
